50
    1   482   485
    2   257   326
    3   286   248
    4   517   421
    5   404   322
    6   713   795
    7    45    43
    8   924   845
    9   873   955
   10   160   252
   11     1     9
   12   838   901
   13    40   122
   14    58    94
   15   676   738
   16   627   574
   17   766   715
   18   862   882
   19   405   367
   20   923   984
   21   379   299
   22   461   433
   23   612   682
   24   133    72
   25   813   874
   26    97   138
   27   908   856
   28   165   145
   29   996   995
   30   623   529
   31   220   199
   32   298   277
   33   157    97
   34   723   719
   35   144   242
   36    48   107
   37   129   122
   38   148    70
   39    35    98
   40   644   600
   41   632   645
   42   272   267
   43  1040   972
   44   977   895
   45   312   213
   46   778   748
   47   567   487
   48   965   923
   49     1    29
   50   616   674
3914
